
Welcome to IBM(R) ILOG(R) CPLEX(R) Interactive Optimizer 22.1.1.0
  with Simplex, Mixed Integer & Barrier Optimizers
5725-A06 5725-A29 5724-Y48 5724-Y49 5724-Y54 5724-Y55 5655-Y21
Copyright IBM Corp. 1988, 2022.  All Rights Reserved.

Type 'help' for a list of available commands.
Type 'help' followed by a command name for more
information on commands.

CPLEX> Selected objective sense:  MINIMIZE
Selected objective  name:  00000000
Selected RHS        name:  RHS1
Selected bound      name:  BOUND
Problem 'ee.mps' read.
Read time = 0.02 sec. (3.17 ticks)
CPLEX> New value for time limit in seconds: 7200
CPLEX> New value for parallel optimization mode: -1
CPLEX> New value for default parallel thread count: 40
CPLEX> New value for mixed integer optimality gap tolerance: 1e-13
CPLEX> Version identifier: 22.1.1.0 | 2022-11-28 | 9160aff4d
CPXPARAM_Threads                                 40
CPXPARAM_Parallel                                -1
CPXPARAM_TimeLimit                               7200
CPXPARAM_MIP_Tolerances_MIPGap                   1e-13
Found incumbent of value 0.000000 after 0.00 sec. (0.31 ticks)
Tried aggregator 2 times.
MIP Presolve eliminated 184 rows and 2745 columns.
MIP Presolve modified 6090 coefficients.
Aggregator did 713 substitutions.
Reduced MIP has 3635 rows, 7840 columns, and 28950 nonzeros.
Reduced MIP has 7840 binaries, 0 generals, 0 SOSs, and 0 indicators.
Presolve time = 0.06 sec. (69.13 ticks)
Probing time = 0.03 sec. (5.33 ticks)
Tried aggregator 1 time.
Detecting symmetries...
Reduced MIP has 3635 rows, 7840 columns, and 28950 nonzeros.
Reduced MIP has 7840 binaries, 0 generals, 0 SOSs, and 0 indicators.
Presolve time = 0.02 sec. (22.07 ticks)
Probing time = 0.02 sec. (5.12 ticks)
Clique table members: 18786.
MIP emphasis: balance optimality and feasibility.
MIP search method: dynamic search.
Parallel mode: opportunistic, using up to 40 threads.
Root relaxation solution time = 0.15 sec. (119.85 ticks)

        Nodes                                         Cuts/
   Node  Left     Objective  IInf  Best Integer    Best Bound    ItCnt     Gap

*     0+    0                            0.0000  -1.54000e+13              --- 
*     0+    0                      -3.39000e+12  -1.54000e+13           354.28%
*     0+    0                      -3.60000e+12  -1.54000e+13           327.78%
*     0+    0                      -4.80000e+12  -1.54000e+13           220.83%
*     0+    0                      -6.00000e+12  -1.54000e+13           156.67%
*     0+    0                      -7.20000e+12  -1.54000e+13           113.89%
      0     0  -1.53900e+13    77  -7.20000e+12  -1.53900e+13     2388  113.75%
*     0+    0                      -1.53900e+13  -1.53900e+13             0.00%
      0     0  -1.53900e+13   158  -1.53900e+13      Cuts: 75     2825    0.00%
      0     0  -1.53900e+13   209  -1.53900e+13      Cuts: 45     3109    0.00%
*     0+    0                      -1.53900e+13  -1.53900e+13             0.00%
*     0+    0                      -1.53900e+13  -1.53900e+13             0.00%
*     0+    0                      -1.53900e+13  -1.53900e+13             0.00%
*     0+    0                      -1.53900e+13  -1.53900e+13             0.00%
      0     2  -1.53900e+13   189  -1.53900e+13  -1.53900e+13     3109    0.00%
Elapsed time = 2.55 sec. (1434.78 ticks, tree = 0.02 MB, solutions = 15)
*     2+    1                      -1.53900e+13  -1.53900e+13             0.00%
    110    74    infeasible        -1.53900e+13  -1.53900e+13    25697    0.00%
    291    90        cutoff        -1.53900e+13  -1.53900e+13    57750    0.00%
    530   116    infeasible        -1.53900e+13  -1.53900e+13    84066    0.00%
    791   117  -1.53900e+13   249  -1.53900e+13  -1.53900e+13    86379    0.00%
   1044   148    infeasible        -1.53900e+13  -1.53900e+13   181636    0.00%
   1374   131  -1.53900e+13   200  -1.53900e+13  -1.53900e+13   224477    0.00%
   1663   167  -1.53900e+13    73  -1.53900e+13  -1.53900e+13   191323    0.00%
   1947   187  -1.53900e+13    75  -1.53900e+13  -1.53900e+13   249349    0.00%
   2136   165  -1.53900e+13   120  -1.53900e+13  -1.53900e+13   263921    0.00%
   2848   369  -1.53900e+13   122  -1.53900e+13  -1.53900e+13   389181    0.00%
Elapsed time = 9.12 sec. (4546.72 ticks, tree = 3.39 MB, solutions = 16)
   3514   560  -1.53900e+13   143  -1.53900e+13  -1.53900e+13   528897    0.00%
   4109   564        cutoff        -1.53900e+13  -1.53900e+13   607681    0.00%
   4721   602  -1.53900e+13   261  -1.53900e+13  -1.53900e+13   760603    0.00%
   5445   568    infeasible        -1.53900e+13  -1.53900e+13  1201519    0.00%
   6654   609  -1.53900e+13   108  -1.53900e+13  -1.53900e+13  1436685    0.00%
   8344   600  -1.53900e+13   233  -1.53900e+13  -1.53900e+13  1408091    0.00%
  10286  1253  -1.53900e+13   105  -1.53900e+13  -1.53900e+13  2043484    0.00%
  12224   585  -1.53900e+13    65  -1.53900e+13  -1.53900e+13  1525056    0.00%
  13794   803    infeasible        -1.53900e+13  -1.53900e+13  1781907    0.00%
  15127  1369  -1.53900e+13    93  -1.53900e+13  -1.53900e+13  2102164    0.00%
Elapsed time = 19.92 sec. (14095.63 ticks, tree = 8.58 MB, solutions = 16)
  15902  1380  -1.53900e+13   114  -1.53900e+13  -1.53900e+13  2110150    0.00%

Performing restart 1

Repeating presolve.
Tried aggregator 2 times.
MIP Presolve eliminated 29 rows and 22 columns.
MIP Presolve modified 1865 coefficients.
Aggregator did 6 substitutions.
Reduced MIP has 3524 rows, 7812 columns, and 28261 nonzeros.
Reduced MIP has 7812 binaries, 0 generals, 0 SOSs, and 0 indicators.
Presolve time = 0.05 sec. (39.87 ticks)
Tried aggregator 2 times.
MIP Presolve eliminated 12 rows and 41 columns.
MIP Presolve modified 28 coefficients.
Aggregator did 15 substitutions.
Reduced MIP has 3497 rows, 7750 columns, and 28035 nonzeros.
Reduced MIP has 7750 binaries, 0 generals, 0 SOSs, and 0 indicators.
Presolve time = 0.06 sec. (54.23 ticks)
Represolve time = 0.22 sec. (145.76 ticks)
  15939     0  -1.53900e+13   325  -1.53900e+13      Cuts: 27  2547356    0.00%
  15939     0  -1.53900e+13   312  -1.53900e+13      Cuts: 17  2547594    0.00%
  15939     0  -1.53900e+13   389  -1.53900e+13      Cuts: 16  2547693    0.00%
  15939     0  -1.53900e+13   365  -1.53900e+13      Cuts: 23  2547912    0.00%
  15939     0  -1.53900e+13   311  -1.53900e+13      Cuts: 28  2548065    0.00%
  15939     0  -1.53900e+13   364  -1.53900e+13      Cuts: 32  2548509    0.00%
  15939     0  -1.53900e+13   403  -1.53900e+13      Cuts: 27  2548791    0.00%
  15939     0  -1.53900e+13   330  -1.53900e+13      Cuts: 26  2548905    0.00%
  15939     0  -1.53900e+13   394  -1.53900e+13      Cuts: 21  2549266    0.00%
  15939     0  -1.53900e+13   388  -1.53900e+13      Cuts: 26  2549742    0.00%
  15939     0  -1.53900e+13   427  -1.53900e+13      Cuts: 42  2550002    0.00%
  15939    11        cutoff        -1.53900e+13  -1.53900e+13  2570073    0.00%
  17146    68  -1.53900e+13   253  -1.53900e+13  -1.53900e+13  2600425    0.00%
  18915    81  -1.53900e+13   219  -1.53900e+13  -1.53900e+13  2602670    0.00%
  20391   140        cutoff        -1.53900e+13  -1.53900e+13  2704531    0.00%

GUB cover cuts applied:  1
Clique cuts applied:  16
Cover cuts applied:  308
Mixed integer rounding cuts applied:  9
Zero-half cuts applied:  72
Lift and project cuts applied:  5
Gomory fractional cuts applied:  21

Root node processing (before b&c):
  Real time             =    1.61 sec. (1420.85 ticks)
Parallel b&c, 40 threads:
  Real time             =   30.56 sec. (21680.68 ticks)
  Sync time (average)   =    5.33 sec.
  Wait time (average)   =    0.10 sec.
                          ------------
Total (root+branch&cut) =   32.17 sec. (23101.53 ticks)

Solution pool: 16 solutions saved.

MIP - Integer optimal solution:  Objective = -1.5389997988e+13
Solution time =   32.29 sec.  Iterations = 2755063  Nodes = 20547
Deterministic time = 23101.57 ticks  (715.37 ticks/sec)

CPLEX> Solution 'p17' written to file 'ee.sol'.
CPLEX> 